p tw 49 53
1 2
2 13
3 4
3 27
4 5
5 6
5 11
6 7
7 8
8 9
8 37
9 10
10 37
11 12
12 14
13 24
14 15
15 16
16 17
16 18
17 43
18 19
19 20
20 21
21 22
22 23
23 25
24 35
25 26
26 37
27 28
28 29
29 30
29 34
30 31
31 32
32 33
33 43
34 36
35 45
36 43
37 38
38 39
39 40
40 41
41 42
42 43
43 44
45 46
46 47
47 48
48 49
49 3
